Argumentos: 
./solver.release -i 7 -t 86400 -a 7 -h 86400 -w Testes/R2-i7 -m R2_modeloCom2345.mod -o R2_modeloCom2345.mod 
Seed: 1622927965
hidden-TXT/Sc-n035w4.txt
hidden-TXT/H0-n035w4-2.txt
hidden-TXT/WD-n035w4-8.txt hidden-TXT/WD-n035w4-6.txt hidden-TXT/WD-n035w4-7.txt hidden-TXT/WD-n035w4-1.txt 
Reading model section from R2_modeloCom2345.mod...
367 lines were read
Reading data section from Testes/R2-i7/7.dat...
7248 lines were read
Generating obj...
Generating H1turnoDia...
Generating H2coberturaMinima...
Generating H3AsucessaoTurnos...
Generating H3BsucessaoTurnos...
Generating H4qualificacao...
Generating S1coberturaOtima...
Generating S2d...
Generating S2dHist...
Generating S2b...
Generating S2bHist...
Generating auxS5...
Generating S6a...
Generating S6b...
Generating auxS7...
Generating S7...
Model has been successfully generated
Writing problem data to `Testes/R2-i7/7.lp'...
160341 lines were written
CPX0000  Tried aggregator 2 times.
CPX0000  MIP Presolve eliminated 7555 rows and 24685 columns.
CPX0000  MIP Presolve modified 1887 coefficients.
CPX0000  Aggregator did 6 substitutions.
CPX0000  Reduced MIP has 7536 rows, 11298 columns, and 99176 nonzeros.
CPX0000  Reduced MIP has 11082 binaries, 216 generals, 0 SOSs, and 0 indicators.
CPX0000  Presolve time = 0.15 sec. (119.63 ticks)
CPX0000  Found incumbent of value 209595.000000 after 0.38 sec. (311.58 ticks)
[1m[30m[ZEN] [0m00:00:00 [1m[34m 209595.00[1m[32m  100.00%
[0mCPX0000  Probing time = 0.01 sec. (5.02 ticks)
CPX0000  Tried aggregator 1 time.
CPX0000  MIP Presolve eliminated 4 rows and 3 columns.
CPX0000  Reduced MIP has 7532 rows, 11295 columns, and 99135 nonzeros.
CPX0000  Reduced MIP has 11079 binaries, 216 generals, 0 SOSs, and 0 indicators.
CPX0000  Presolve time = 0.05 sec. (37.44 ticks)
CPX0000  Probing time = 0.01 sec. (4.82 ticks)
CPX0000  Clique table members: 4823.
CPX0000  MIP emphasis: balance optimality and feasibility.
CPX0000  MIP search method: dynamic search.
CPX0000  Parallel mode: none, using 1 thread.
CPX0000  Root relaxation solution time = 0.43 sec. (303.16 ticks)
CPX0000
CPX0000          Nodes                                         Cuts/
CPX0000     Node  Left     Objective  IInf  Best Integer    Best Bound    ItCnt     Gap
CPX0000
CPX0000  *     0+    0                       209595.0000        0.0000     3602  100.00%
CPX0000        0     0       65.0000   398   209595.0000       65.0000     3602   99.97%
CPX0000        0     0      100.0000   524   209595.0000     Cuts: 426     4998   99.95%
CPX0000        0     0      133.3333   658   209595.0000     Cuts: 341     6447   99.94%
CPX0000        0     0      153.3333   674   209595.0000     Cuts: 263     7706   99.93%
CPX0000  *     0+    0                        73520.0000      153.3333     7706   99.79%
[1m[30m[ZEN] [0m00:00:03 [1m[34m  73520.00[1m[32m   99.79%
[0mCPX0000        0     0      171.6667   790    73520.0000     Cuts: 245     9707   99.77%
CPX0000        0     0      217.5000   722    73520.0000     Cuts: 193    11468   99.70%
CPX0000        0     0      277.5000   720    73520.0000     Cuts: 218    13044   99.62%
CPX0000        0     0      307.5000   671    73520.0000     Cuts: 127    13499   99.58%
CPX0000        0     0      307.5000   634    73520.0000     Cuts: 100    14355   99.58%
CPX0000        0     0      307.5000   550    73520.0000      Cuts: 37    14669   99.58%
CPX0000        0     0      307.5000   551    73520.0000      Cuts: 33    15076   99.58%
CPX0000        0     0      307.5000   299    73520.0000  ZeroHalf: 11    15149   99.58%
CPX0000  *     0+    0                         1160.0000      307.5000    15149   73.49%
[1m[30m[ZEN] [0m00:00:07 [1m[34m   1160.00[1m[32m   73.49%
[0mCPX0000  *     0+    0                          630.0000      307.5000    15149   51.19%
CPX0000  *     0+    0                          500.0000      307.5000    15149   38.50%
CPX0000  *     0+    0                          450.0000      307.5000    15149   31.67%
CPX0000  *     0+    0                          420.0000      307.5000    15149   26.79%
CPX0000  *     0+    0                          390.0000      307.5000    15149   21.15%
CPX0000  *     0+    0                          360.0000      307.5000    15149   14.58%
[1m[30m[ZEN] [0m00:00:08 [1m[34m    360.00[1m[32m   14.58%
[0mCPX0000        0     0      307.5000   340      360.0000      Cuts: 65    15309   14.58%
CPX0000  *     0+    0                          340.0000      307.5000    15309    9.56%
[1m[30m[ZEN] [0m00:00:09 [1m[34m    340.00[1m[32m    9.56%
[0mCPX0000        0     2      307.5000   148      340.0000      315.0000    15309    7.35%
CPX0000  Elapsed time = 9.84 sec. (6491.54 ticks, tree = 0.00 MB
CPX0000        4     6      315.0000   174      340.0000      315.0000    16438    7.35%
CPX0000        8    10      315.0000   251      340.0000      315.0000    17791    7.35%
CPX0000       11    13      315.0000   231      340.0000      315.0000    18682    7.35%
CPX0000       14    16      315.0000   168      340.0000      315.0000    19873    7.35%
CPX0000       17    19      315.0000   198      340.0000      315.0000    21327    7.35%
CPX0000       22    24      315.0000   192      340.0000      315.0000    22057    7.35%
CPX0000       29    31      322.5000   195      340.0000      315.0000    22981    7.35%
CPX0000       35    37      330.0000   321      340.0000      315.0000    23886    7.35%
CPX0000       40    42      322.5000   168      340.0000      315.0000    25042    7.35%
CPX0000  *    54    40      integral     0      330.0000      315.0000    28544    4.55%
CPX0000  Elapsed time = 15.21 sec. (10166.03 ticks, tree = 2.67 MB
[1m[30m[ZEN] [0m00:00:15 [1m[34m    330.00[1m[32m    4.55%
[0mCPX0000       74    60      315.0000   237      330.0000      315.0000    31718    4.55%
CPX0000      100    86      325.0000   266      330.0000      315.0000    35449    4.55%
CPX0000      126   104      322.5000   190      330.0000      315.0000    38661    4.55%
CPX0000      214   188      322.5000   206      330.0000      315.0000    41381    4.55%
CPX0000      260   230      322.5000   290      330.0000      315.0000    44562    4.55%
CPX0000      326   284      315.0000   120      330.0000      315.0000    47420    4.55%
CPX0000      355   294      322.5000   243      330.0000      315.0000    50447    4.55%
CPX0000      374   295      315.0000   240      330.0000      315.0000    53842    4.55%
CPX0000      390   297      322.5000   328      330.0000      315.0000    56653    4.55%
CPX0000      430   287      315.0000   245      330.0000      315.0000    60515    4.55%
CPX0000  Elapsed time = 28.56 sec. (20166.41 ticks, tree = 22.85 MB
CPX0000      471   276      315.0000   387      330.0000      315.0000    64849    4.55%
CPX0000      520   259      315.0000   440      330.0000      315.0000    69200    4.55%
CPX0000      569   223      322.5000   255      330.0000      322.5000    73530    2.27%
CPX0000      594   198      322.5000   200      330.0000      322.5000    78383    2.27%
CPX0000      626   166      322.5000   264      330.0000      322.5000    82985    2.27%
CPX0000      667   148      322.5000   247      330.0000      322.5000    86776    2.27%
CPX0000      762    53      322.5000   267      330.0000      322.5000    90838    2.27%
CPX0000
CPX0000  GUB cover cuts applied:  240
CPX0000  Clique cuts applied:  286
CPX0000  Cover cuts applied:  14
CPX0000  Implied bound cuts applied:  1
CPX0000  Mixed integer rounding cuts applied:  42
CPX0000  Zero-half cuts applied:  229
CPX0000  Gomory fractional cuts applied:  14
CPX0000
CPX0000  Root node processing (before b&c):
CPX0000    Real time             =    9.80 sec. (6462.19 ticks)
CPX0000  Sequential b&c:
CPX0000    Real time             =   28.89 sec. (21062.61 ticks)
CPX0000                            ------------
CPX0000  Total (root+branch&cut) =   38.69 sec. (27524.79 ticks)
H2 understaffing: 0
H3 shiftTypeSuccessions: 0
S1 optimalCoverage: 270
S2a consecutiveShift: 6645 = (443,0 )
S2b consecutiveWorkingDays: 8220 = ( 274,0 )
S3 consecutiveDaysOff: 5100 = ( 170,0 )
S4 preferences: 60
S5 completeWeekend: 0
S6 totalAssignments: 0
S7 totalWorkingWeekeends: 0
 

Cost Solution: 20295

      |M|T|W|T|F|S|S| |M|T|W|T|F|S|S| |M|T|W|T|F|S|S| |M|T|W|T|F|S|S|
-----------------------------------------------------------------------
HN_0  |N|-|-|-|E|-|-| |D|N|-|-|L|-|-| |L|-|-|-|-|D|D| |E|-|N|-|L|-|-|
HN_1  |E|E|L|-|-|-|-| |-|E|E|L|-|-|-| |E|-|N|-|E|E|E| |-|L|-|E|-|L|L|
HN_2  |-|N|-|E|L|-|-| |L|L|-|D|-|L|L| |-|N|-|-|-|N|N| |N|N|-|D|E|-|-|
HN_3  |-|N|N|N|-|E|D| |-|L|N|-|-|E|D| |-|D|L|-|N|-|-| |E|-|N|-|N|-|-|
HN_4  |D|L|-|L|-|-|-| |E|-|E|-|D|-|-| |-|D|-|L|-|-|-| |D|L|-|-|N|-|-|
HN_5  |-|L|-|-|L|-|-| |N|-|E|-|-|L|L| |-|D|E|-|L|-|-| |-|-|L|-|D|-|-|
NU_6  |D|E|D|E|L|-|-| |N|-|L|-|-|N|N| |-|N|-|E|N|-|-| |-|N|N|-|L|-|-|
NU_7  |-|-|-|E|D|L|L| |-|L|-|E|D|-|-| |E|L|-|E|E|-|-| |D|D|E|-|D|-|-|
NU_8  |L|N|-|E|E|D|D| |N|-|D|L|L|L|L| |-|E|D|E|N|-|-| |N|N|N|N|N|-|-|
NU_9  |D|D|E|D|E|-|-| |D|D|E|D|N|-|-| |E|E|D|D|-|L|L| |L|L|L|-|D|D|D|
NU_10 |N|-|L|N|-|-|-| |E|D|N|-|-|-|-| |N|-|-|-|D|E|N| |N|-|L|-|N|N|N|
NU_11 |N|-|-|E|-|-|-| |-|D|-|-|E|-|-| |E|D|-|D|L|-|-| |-|E|L|N|-|-|-|
NU_12 |L|-|E|-|-|-|-| |L|-|N|-|-|-|-| |L|L|L|L|-|D|E| |-|-|N|-|-|-|-|
NU_13 |-|-|-|D|L|-|-| |-|N|-|-|-|-|-| |D|D|E|N|-|-|-| |-|-|E|-|E|L|L|
NU_14 |-|N|-|-|-|E|E| |-|-|-|-|L|-|-| |N|N|-|L|L|-|-| |D|L|-|L|-|-|-|
NU_15 |N|N|N|-|-|-|-| |E|N|-|E|-|D|E| |-|D|-|-|E|-|-| |-|E|D|E|-|E|E|
NU_16 |E|D|L|-|N|N|N| |-|-|L|N|N|-|-| |-|L|-|D|D|-|-| |-|E|-|D|L|-|-|
CT_17 |N|-|D|D|D|-|-| |E|D|D|E|E|-|-| |D|E|D|D|-|L|N| |N|-|D|D|D|D|D|
CT_18 |D|E|E|N|N|-|-| |L|N|N|N|N|-|-| |N|N|N|N|-|E|D| |L|L|L|-|E|D|E|
CT_19 |L|L|L|L|-|-|-| |E|L|-|N|-|-|-| |-|-|L|-|D|-|-| |-|-|-|L|N|-|-|
CT_20 |E|D|N|-|D|D|E| |E|E|-|D|E|D|D| |L|-|N|N|N|-|-| |E|D|D|D|L|-|-|
CT_21 |-|N|N|-|E|E|E| |-|E|L|L|L|-|-| |D|E|-|D|L|-|-| |-|L|-|E|-|-|-|
CT_22 |-|E|D|-|L|-|-| |-|-|L|N|-|-|-| |-|-|N|-|-|-|-| |L|-|E|N|-|L|N|
CT_23 |-|D|E|-|-|-|-| |D|-|E|-|-|-|-| |N|-|D|-|D|-|-| |D|-|-|E|-|N|N|
CT_24 |-|-|D|-|N|-|-| |L|N|-|-|D|N|N| |-|N|-|L|N|-|-| |L|-|D|N|-|L|L|
CT_25 |-|E|E|D|E|-|-| |E|E|D|D|N|-|-| |L|L|L|N|-|L|N| |N|N|-|D|E|E|E|
CT_26 |-|-|D|L|-|-|-| |D|D|-|-|L|-|-| |-|L|L|L|N|-|-| |E|-|-|-|L|-|-|
CT_27 |L|-|L|-|N|-|-| |L|-|D|N|-|-|-| |D|-|-|E|L|-|-| |-|N|-|L|-|-|-|
CT_28 |E|D|-|-|-|L|N| |-|L|N|-|E|-|-| |-|-|E|E|-|-|-| |-|D|-|L|-|-|-|
TR_29 |-|-|-|L|-|-|-| |E|-|L|-|D|D|D| |D|-|-|-|L|-|-| |L|L|-|-|E|-|-|
TR_30 |L|-|D|E|E|D|L| |-|D|L|N|N|-|-| |L|N|N|N|N|-|-| |E|E|D|E|-|E|D|
TR_31 |-|D|-|L|-|E|D| |N|N|-|D|E|E|N| |N|-|-|-|L|-|-| |D|N|-|-|N|-|-|
TR_32 |D|E|L|N|N|-|-| |L|-|E|-|D|D|E| |L|-|D|D|D|E|E| |-|E|N|N|-|-|-|
TR_33 |-|-|E|D|E|-|-| |D|-|-|-|L|-|-| |E|D|E|-|-|N|N| |-|L|L|-|L|L|L|
TR_34 |E|L|N|-|D|N|N| |N|N|-|-|E|-|-| |-|E|L|-|-|-|-| |N|-|-|E|-|N|N|


Hard constraint violations
--------------------------

Minimal coverage constraints: 0
Required skill constraints: 0
Illegal shift type succession constraints: 0
Single assignment per day: 0


Cost per constraint type
------------------------

Total assignment constraints: 0
Consecutive constraints: 14865
Non working days constraints: 5100
Preferences: 60
Max working weekend: 0
Complete weekends: 0
Optimal coverage constraints: 270

------------------------

Total cost: 20295
